regression_itp/log-2023-02-20-10-22-36/uf_duplicates.smt2.out
At line 23: syntax error, unexpected ')', expecting TK_SYM or TK_QSYM or '(' or '_'
